%nprocshared=8
%mem=10gb
%chk=3_phenylene_NICS_Scan.chk
#p nmr=giao ub3lyp/6-311+g(2d,p) geom=connectivity

File Created by py.Aroma 3

0 3
H      -0.120733      4.586719      0.000000
C      0.790413      3.998293      0.000000
C      3.238257      2.475076      0.000000
C      0.803730      2.632959      0.000000
C      2.064461      4.625664      0.000000
C      3.238257      3.895229      0.000000
C      2.007437      1.883896      0.000000
H      2.116800      5.709840      0.000000
H      4.187840      4.421064      0.000000
H      4.168621      1.917515      0.000000
C      0.008734      1.349887      0.000000
C      -0.008734      -1.349887      0.000000
C      -1.260025      0.784186      -0.000000
C      1.207330      0.603974      0.000000
C      1.260025      -0.784186      0.000000
C      -1.207330      -0.603974      0.000000
H      -2.180164      1.356936      -0.000000
H      2.180164      -1.356936      0.000000
C      -0.803730      -2.632959      0.000000
C      -3.238257      -3.895229      0.000000
C      -2.007437      -1.883896      0.000000
C      -0.790413      -3.998293      0.000000
C      -2.064461      -4.625664      0.000000
C      -3.238257      -2.475076      0.000000
H      0.120733      -4.586719      0.000000
H      -2.116800      -5.709840      0.000000
H      -4.168621      -1.917515      0.000000
H      -4.187840      -4.421064      0.000000
Bq     -2.651359    -4.260446     1.000000
Bq     -2.545694    -4.090638     1.000000
Bq     -2.440029    -3.920830     1.000000
Bq     -2.334364    -3.751021     1.000000
Bq     -2.228699    -3.581213     1.000000
Bq     -2.123034    -3.411404     1.000000
Bq     -2.017369    -3.241596     1.000000
Bq     -1.911704    -3.071787     1.000000
Bq     -1.806039    -2.901979     1.000000
Bq     -1.700374    -2.732170     1.000000
Bq     -1.594709    -2.562362     1.000000
Bq     -1.489045    -2.392553     1.000000
Bq     -1.383377    -2.222746     1.000000
Bq     -1.277700    -2.052946     1.000000
Bq     -1.172023    -1.883145     1.000000
Bq     -1.066346    -1.713344     1.000000
Bq     -0.960668    -1.543543     1.000000
Bq     -0.854991    -1.373742     1.000000
Bq     -0.749314    -1.203941     1.000000
Bq     -0.643637    -1.034140     1.000000
Bq     -0.537957    -0.864341     1.000000
Bq     -0.432276    -0.694542     1.000000
Bq     -0.326595    -0.524744     1.000000
Bq     -0.220914    -0.354945     1.000000
Bq     -0.115234    -0.185147     1.000000
Bq     -0.009553    -0.015348     1.000000
Bq     0.096128    0.154450     1.000000
Bq     0.201809    0.324249     1.000000
Bq     0.307490    0.494047     1.000000
Bq     0.413171    0.663846     1.000000
Bq     0.518852    0.833644     1.000000
Bq     0.624532    1.003443     1.000000
Bq     0.730210    1.173244     1.000000
Bq     0.835887    1.343045     1.000000
Bq     0.941564    1.512846     1.000000
Bq     1.047241    1.682647     1.000000
Bq     1.152918    1.852448     1.000000
Bq     1.258595    2.022249     1.000000
Bq     1.364272    2.192049     1.000000
Bq     1.469942    2.361855     1.000000
Bq     1.575607    2.531663     1.000000
Bq     1.681272    2.701472     1.000000
Bq     1.786937    2.871280     1.000000
Bq     1.892602    3.041089     1.000000
Bq     1.998267    3.210897     1.000000
Bq     2.103932    3.380706     1.000000
Bq     2.209597    3.550514     1.000000
Bq     2.315262    3.720323     1.000000
Bq     2.420927    3.890131     1.000000
Bq     2.526592    4.059940     1.000000
Bq     2.632257    4.229748     1.000000

1
2
3
4
5
6
7
8
9
10
11
12
13
14
15
16
17
18
19
20
21
22
23
24
25
26
27
28
29
30
31
32
33
34
35
36
37
38
39
40
41
42
43
44
45
46
47
48
49
50
51
52
53
54
55
56
57
58
59
60
61
62
63
64
65
66
67
68
69
70
71
72
73
74
75
76
77
78
79

