%nprocshared=8
%mem=10gb
%chk=1-bromoethylbenzene_INICS.chk
#p nmr=giao b3lyp/6-31g(d) geom=connectivity

INICS 10.00 0.20 50 // py.Aroma 4

0 1
H      1.362402      1.739429      1.549908
C      1.653352      0.937935      0.875139
C      2.403412      -1.114807      -0.839588
C      0.701971      0.365680      0.032075
C      2.973203      0.492484      0.860094
C      3.351122      -0.533697      0.001787
C      1.088574      -0.668564      -0.824345
H      3.702924      0.946507      1.523816
H      4.378368      -0.885411      -0.009421
H      0.345386      -1.139499      -1.462125
H      2.690274      -1.922759      -1.506017
C      -0.697960      0.922221      0.006207
H      -0.848258      1.591828      0.853998
C      -1.039059      1.632512      -1.296872
H      -0.945844      0.953614      -2.149202
H      -0.339823      2.463546      -1.443610
H      -2.058365      2.026384      -1.274198
Br      -2.025564      -0.513606      0.315139
Bq      -0.166934      -6.799533      7.097019
Bq      -0.123023      -6.665279      6.955429
Bq      -0.079112      -6.531025      6.813839
Bq      -0.035202      -6.396771      6.672249
Bq      0.008709      -6.262517      6.530659
Bq      0.052620      -6.128262      6.389069
Bq      0.096531      -5.994008      6.247480
Bq      0.140442      -5.859754      6.105890
Bq      0.184352      -5.725500      5.964300
Bq      0.228263      -5.591246      5.822710
Bq      0.272174      -5.456992      5.681120
Bq      0.316085      -5.322738      5.539530
Bq      0.359996      -5.188484      5.397941
Bq      0.403906      -5.054230      5.256351
Bq      0.447817      -4.919976      5.114761
Bq      0.491728      -4.785722      4.973171
Bq      0.535639      -4.651467      4.831581
Bq      0.579550      -4.517213      4.689991
Bq      0.623460      -4.382959      4.548402
Bq      0.667371      -4.248705      4.406812
Bq      0.711282      -4.114451      4.265222
Bq      0.755193      -3.980197      4.123632
Bq      0.799104      -3.845943      3.982042
Bq      0.843014      -3.711689      3.840452
Bq      0.886925      -3.577435      3.698863
Bq      0.930836      -3.443181      3.557273
Bq      0.974747      -3.308926      3.415683
Bq      1.018657      -3.174672      3.274093
Bq      1.062568      -3.040418      3.132503
Bq      1.106479      -2.906164      2.990913
Bq      1.150390      -2.771910      2.849324
Bq      1.194301      -2.637656      2.707734
Bq      1.238211      -2.503402      2.566144
Bq      1.282122      -2.369148      2.424554
Bq      1.326033      -2.234894      2.282964
Bq      1.369944      -2.100640      2.141374
Bq      1.413855      -1.966386      1.999785
Bq      1.457765      -1.832131      1.858195
Bq      1.501676      -1.697877      1.716605
Bq      1.545587      -1.563623      1.575015
Bq      1.589498      -1.429369      1.433425
Bq      1.633409      -1.295115      1.291835
Bq      1.677319      -1.160861      1.150246
Bq      1.721230      -1.026607      1.008656
Bq      1.765141      -0.892353      0.867066
Bq      1.809052      -0.758099      0.725476
Bq      1.852963      -0.623845      0.583886
Bq      1.896873      -0.489590      0.442296
Bq      1.940784      -0.355336      0.300707
Bq      1.984695      -0.221082      0.159117
Bq      2.028606      -0.086828      0.017527
Bq      2.072516      0.047426      -0.124063
Bq      2.116427      0.181680      -0.265653
Bq      2.160338      0.315934      -0.407242
Bq      2.204249      0.450188      -0.548832
Bq      2.248160      0.584442      -0.690422
Bq      2.292070      0.718696      -0.832012
Bq      2.335981      0.852951      -0.973602
Bq      2.379892      0.987205      -1.115192
Bq      2.423803      1.121459      -1.256781
Bq      2.467714      1.255713      -1.398371
Bq      2.511624      1.389967      -1.539961
Bq      2.555535      1.524221      -1.681551
Bq      2.599446      1.658475      -1.823141
Bq      2.643357      1.792729      -1.964731
Bq      2.687268      1.926983      -2.106320
Bq      2.731178      2.061237      -2.247910
Bq      2.775089      2.195491      -2.389500
Bq      2.819000      2.329746      -2.531090
Bq      2.862911      2.464000      -2.672680
Bq      2.906821      2.598254      -2.814270
Bq      2.950732      2.732508      -2.955859
Bq      2.994643      2.866762      -3.097449
Bq      3.038554      3.001016      -3.239039
Bq      3.082465      3.135270      -3.380629
Bq      3.126375      3.269524      -3.522219
Bq      3.170286      3.403778      -3.663809
Bq      3.214197      3.538032      -3.805398
Bq      3.258108      3.672287      -3.946988
Bq      3.302019      3.806541      -4.088578
Bq      3.345929      3.940795      -4.230168
Bq      3.389840      4.075049      -4.371758
Bq      3.433751      4.209303      -4.513348
Bq      3.477662      4.343557      -4.654937
Bq      3.521573      4.477811      -4.796527
Bq      3.565483      4.612065      -4.938117
Bq      3.609394      4.746319      -5.079707
Bq      3.653305      4.880573      -5.221297
Bq      3.697216      5.014827      -5.362887
Bq      3.741127      5.149082      -5.504476
Bq      3.785037      5.283336      -5.646066
Bq      3.828948      5.417590      -5.787656
Bq      3.872859      5.551844      -5.929246
Bq      3.916770      5.686098      -6.070836
Bq      3.960680      5.820352      -6.212426
Bq      4.004591      5.954606      -6.354015
Bq      4.048502      6.088860      -6.495605
Bq      4.092413      6.223114      -6.637195
Bq      4.136324      6.357368      -6.778785
Bq      4.180234      6.491623      -6.920375
Bq      4.224145      6.625877      -7.061965

1
2
3
4
5
6
7
8
9
10
11
12
13
14
15
16
17
18
19
20
21
22
23
24
25
26
27
28
29
30
31
32
33
34
35
36
37
38
39
40
41
42
43
44
45
46
47
48
49
50
51
52
53
54
55
56
57
58
59
60
61
62
63
64
65
66
67
68
69
70
71
72
73
74
75
76
77
78
79
80
81
82
83
84
85
86
87
88
89
90
91
92
93
94
95
96
97
98
99
100
101
102
103
104
105
106
107
108
109
110
111
112
113
114
115
116
117
118
119

