%nprocshared=8
%mem=10gb
%chk=1_fluoro_3_ethylazulene_NICS.chk
#p nmr=giao ub3lyp/6-31+g(d)

File Created by py.Aroma 3

0 3
C      -0.178731      -0.387094      -0.199828
C      0.695290      0.810159      -0.003219
C      2.072722      0.865948      0.166201
H      2.481988      1.866421      0.291889
C      2.981937      -0.183078      0.197446
H      4.022254      0.092200      0.344900
C      2.726656      -1.551796      0.062028
H      3.607259      -2.188507      0.120579
C      1.529078      -2.228092      -0.137278
C      0.236450      -1.704162      -0.253060
H      -0.552476      -2.439048      -0.406645
C      -1.508076      0.074833      -0.326189
C      -1.491136      1.470226      -0.215718
H      -2.354264      2.122168      -0.270919
C      -0.175278      1.894378      -0.025331
H      1.605207      -3.309132      -0.213586
C      -2.737107      -0.772762      -0.488022
H      -3.529418      -0.166192      -0.939457
H      -2.542565      -1.588136      -1.195032
C      -3.239150      -1.357532      0.839148
H      -3.477909      -0.558035      1.546269
H      -2.474453      -1.988832      1.301513
H      -4.138203      -1.962763      0.688398
F      0.208516      3.170409      0.115001
Bq      -0.412623      0.847830      -1.144094
Bq      -0.650550      0.697171      0.835980
Bq      1.556443      -0.551958      -1.014152
Bq      1.318814      -0.698932      0.966235
Bq      -0.531586      0.772500      -0.154057
Bq      1.437629      -0.625445      -0.023959


